NAME: random-67-19448
TYPE: TSP
COMMENT: size=67 seed=19448
DIMENSION: 136
EDGE_WEIGHT_TYPE: EUC_2D
NODE_COORD_SECTION
+0 536 526
-0 536 526
+1 73 930
-1 354 650
+2 634 113
-2 794 573
+3 896 32
-3 943 597
+4 852 189
-4 288 723
+5 751 380
-5 894 871
+6 848 175
-6 516 645
+7 338 588
-7 615 567
+8 88 435
-8 75 783
+9 551 382
-9 761 873
+10 28 180
-10 126 331
+11 790 549
-11 396 133
+12 871 847
-12 266 914
+13 456 50
-13 322 534
+14 285 129
-14 186 25
+15 785 651
-15 72 764
+16 212 62
-16 471 476
+17 640 186
-17 665 398
+18 444 987
-18 126 968
+19 124 950
-19 977 946
+20 467 726
-20 516 765
+21 21 139
-21 294 763
+22 309 344
-22 79 925
+23 818 782
-23 631 124
+24 710 821
-24 885 46
+25 945 156
-25 713 148
+26 493 685
-26 861 482
+27 441 974
-27 219 344
+28 865 419
-28 136 879
+29 387 113
-29 11 784
+30 937 556
-30 586 705
+31 226 476
-31 344 185
+32 542 751
-32 266 913
+33 555 946
-33 175 428
+34 814 733
-34 515 380
+35 348 28
-35 319 529
+36 387 917
-36 294 250
+37 839 188
-37 928 827
+38 763 964
-38 816 918
+39 264 225
-39 857 602
+40 564 233
-40 787 16
+41 127 967
-41 342 98
+42 346 819
-42 751 584
+43 200 986
-43 958 385
+44 513 563
-44 294 718
+45 821 204
-45 252 479
+46 225 138
-46 456 108
+47 96 86
-47 757 831
+48 908 267
-48 747 349
+49 22 593
-49 224 510
+50 159 728
-50 358 441
+51 931 98
-51 171 196
+52 595 212
-52 639 647
+53 221 856
-53 41 229
+54 900 116
-54 600 963
+55 623 641
-55 290 899
+56 138 996
-56 257 480
+57 728 426
-57 823 957
+58 146 403
-58 814 545
+59 759 642
-59 884 689
+60 119 343
-60 516 199
+61 77 785
-61 638 795
+62 685 346
-62 995 825
+63 104 841
-63 719 771
+64 313 443
-64 711 170
+65 523 148
-65 846 557
+66 66 683
-66 966 489
+67 504 193
-67 517 931
PRECEDENCE_SECTION
+0 -0
+1 -1
+2 -2
+3 -3
+4 -4
+5 -5
+6 -6
+7 -7
+8 -8
+9 -9
+10 -10
+11 -11
+12 -12
+13 -13
+14 -14
+15 -15
+16 -16
+17 -17
+18 -18
+19 -19
+20 -20
+21 -21
+22 -22
+23 -23
+24 -24
+25 -25
+26 -26
+27 -27
+28 -28
+29 -29
+30 -30
+31 -31
+32 -32
+33 -33
+34 -34
+35 -35
+36 -36
+37 -37
+38 -38
+39 -39
+40 -40
+41 -41
+42 -42
+43 -43
+44 -44
+45 -45
+46 -46
+47 -47
+48 -48
+49 -49
+50 -50
+51 -51
+52 -52
+53 -53
+54 -54
+55 -55
+56 -56
+57 -57
+58 -58
+59 -59
+60 -60
+61 -61
+62 -62
+63 -63
+64 -64
+65 -65
+66 -66
+67 -67
EOF
